networks/zoo_68_897/zoo_68_897.txt
Number of groups: 37
Flow 3: {4 38} 
Flow 18: {26 60} 
Flow 79: {3 32} {32 66} 
Flow 81: {3 32} {32 25} {25 34} {34 68} 
Flow 93: {5 9} {9 34} {34 25} {25 14} {14 48} 
Flow 129: {17 18} {18 20} {20 54} 
Flow 148: {16 8} {8 42} 
Flow 154: {7 2} {2 1} {1 11} {11 15} {15 49} 
Flow 162: {22 23} {23 57} 
Flow 194: {8 24} {24 1} {1 23} 
Flow 225: {5 8} {8 16} {16 7} {7 22} {22 56} 
Flow 229: {34 33} {33 31} Flow 230: {33 31} {31 29} {29 28} {28 62} 
Flow 243: {19 17} {17 24} {24 13} {13 12} {12 46} 
Flow 252: {10 19} {19 6} {6 26} 
Flow 252: {26 60} 
Flow 256: {25 32} {32 66} 
Flow 268: {11 12} {12 13} {13 47} 
Flow 285: {4 28} {28 27} {27 30} {30 64} 
Flow 289: {24 32} Flow 301: {13 24} {24 18} {18 52} 
Flow 307: {24 32} {32 26} {26 60} 
Flow 323: {12 11} {11 45} 
Flow 375: {14 33} {33 67} 
Flow 378: {1 2} {2 36} 
Flow 385: {15 24} {24 17} {17 19} {19 10} {10 44} 
Flow 434: {18 24} {24 1} {1 4} {4 38} 
Flow 435: {18 24} {24 8} {8 5} 
Flow 437: {2 7} {7 41} 
Flow 453: {18 24} {24 32} {32 26} {26 60} 
Flow 505: {20 18} {18 17} {17 51} 
Flow 508: {20 15} {15 11} {11 1} {1 21} {21 55} 
Flow 534: {21 22} {22 7} {7 16} {16 50} 
Flow 540: {21 1} Flow 554: {22 21} {21 1} {1 4} {4 3} {3 37} 
Flow 555: {21 1} {1 4} {4 38} 
Flow 583: {23 1} {1 24} {24 58} 
Flow 622: {24 1} Flow 651: {26 32} {32 3} {3 4} {4 38} 
Flow 652: {6 19} {19 9} {9 5} {5 39} 
Flow 670: {26 6} {6 25} {25 59} 
Flow 671: {32 31} {31 30} {30 27} {27 61} 
Flow 679: {27 28} {28 4} {4 1} {1 35} 
Flow 703: {30 31} {31 32} {32 26} 
Flow 703: {26 60} 
Flow 739: {28 29} {29 31} {31 65} 
Flow 760: {30 31} {31 33} {33 34} {34 9} {9 19} {19 53} 
Flow 761: {30 31} {31 32} {32 24} {24 15} {15 20} 
Flow 771: {31 32} Flow 843: {33 14} {14 25} {25 6} {6 40} 
Flow 893: {34 33} {33 31} {31 29} {29 63} 
Time taken running everything: 450 seconds
