networks/zoo_68_897/standard/zoo_68_897.sol
<?xml version = "1.0" encoding="UTF-8" standalone="yes"?>
<CPLEXSolution version="1.2">
 <header
   problemName="networks/zoo_68_897/zoo_68_897.lp"
   solutionName="incumbent"
   solutionIndex="-1"
   objectiveValue="37"
   solutionTypeValue="3"
   solutionTypeString="primal"
   solutionStatusValue="101"
   solutionStatusString="integer optimal solution"
   solutionMethodString="mip"
   primalFeasible="1"
   dualFeasible="1"
   MIPNodes="4899"
   MIPIterations="1708504"
   writeLevel="3"/>
 <quality
   epInt="1.0000000000000001e-05"
   epRHS="9.9999999999999995e-07"
   maxIntInfeas="0"
   maxPrimalInfeas="0"
   maxX="4"
   maxSlack="10"/>
 <variables>
  <variable name="Y(13,19)" index="822" value="1"/>
  <variable name="Y(87,7)" index="5768" value="1"/>
  <variable name="Y(140,33)" index="9345" value="1"/>
  <variable name="Y(159,20)" index="10605" value="1"/>
  <variable name="Y(160,21)" index="10673" value="1"/>
  <variable name="Y(162,22)" index="10808" value="1"/>
  <variable name="Y(186,15)" index="12409" value="1"/>
  <variable name="Y(240,6)" index="16018" value="1"/>
  <variable name="Y(255,31)" index="17048" value="1"/>
  <variable name="Y(268,13)" index="17901" value="1"/>
  <variable name="Y(271,16)" index="18105" value="1"/>
  <variable name="Y(292,3)" index="19499" value="1"/>
  <variable name="Y(301,18)" index="20117" value="1"/>
  <variable name="Y(364,22)" index="24342" value="1"/>
  <variable name="Y(370,28)" index="24750" value="1"/>
  <variable name="Y(376,34)" index="25158" value="1"/>
  <variable name="Y(384,8)" index="25668" value="1"/>
  <variable name="Y(440,11)" index="29423" value="1"/>
  <variable name="Y(453,26)" index="30309" value="1"/>
  <variable name="Y(471,12)" index="31501" value="1"/>
  <variable name="Y(477,17)" index="31908" value="1"/>
  <variable name="Y(505,17)" index="33784" value="1"/>
  <variable name="Y(540,23)" index="36135" value="1"/>
  <variable name="Y(547,30)" index="36611" value="1"/>
  <variable name="Y(553,2)" index="36985" value="1"/>
  <variable name="Y(582,9)" index="38935" value="1"/>
  <variable name="Y(583,24)" index="39017" value="1"/>
  <variable name="Y(651,4)" index="43553" value="1"/>
  <variable name="Y(652,5)" index="43621" value="1"/>
  <variable name="Y(679,1)" index="45426" value="1"/>
  <variable name="Y(705,29)" index="47196" value="1"/>
  <variable name="Y(708,32)" index="47400" value="1"/>
  <variable name="Y(723,14)" index="48387" value="1"/>
  <variable name="Y(734,25)" index="49135" value="1"/>
  <variable name="Y(846,10)" index="56624" value="1"/>
  <variable name="Y(890,6)" index="59568" value="1"/>
  <variable name="Y(891,27)" index="59656" value="1"/>
  <variable name="X(1,2,271)" index="60369" value="1"/>
  <variable name="X(1,4,292)" index="61287" value="1"/>
  <variable name="X(1,11,159)" index="62051" value="1"/>
  <variable name="X(1,21,364)" index="63153" value="1"/>
  <variable name="X(1,23,540)" index="64226" value="1"/>
  <variable name="X(1,24,583)" index="65166" value="1"/>
  <variable name="X(1,35,679)" index="66159" value="1"/>
  <variable name="X(2,1,159)" index="66536" value="1"/>
  <variable name="X(2,7,271)" index="67545" value="1"/>
  <variable name="X(2,36,553)" index="68724" value="1"/>
  <variable name="X(3,4,651)" index="69719" value="1"/>
  <variable name="X(3,32,734)" index="70699" value="1"/>
  <variable name="X(3,37,292)" index="71154" value="1"/>
  <variable name="X(4,1,679)" index="72438" value="1"/>
  <variable name="X(4,3,292)" index="72948" value="1"/>
  <variable name="X(4,28,547)" index="74100" value="1"/>
  <variable name="X(4,38,651)" index="75101" value="1"/>
  <variable name="X(5,8,87)" index="75434" value="1"/>
  <variable name="X(5,9,582)" index="76826" value="1"/>
  <variable name="X(5,39,652)" index="77793" value="1"/>
  <variable name="X(6,19,652)" index="78690" value="1"/>
  <variable name="X(6,25,140)" index="79075" value="1"/>
  <variable name="X(6,26,890)" index="80722" value="1"/>
  <variable name="X(6,40,240)" index="80969" value="1"/>
  <variable name="X(7,2,553)" index="82179" value="1"/>
  <variable name="X(7,16,271)" index="82794" value="1"/>
  <variable name="X(7,22,162)" index="83582" value="1"/>
  <variable name="X(7,41,87)" index="84404" value="1"/>
  <variable name="X(8,5,582)" index="85796" value="1"/>
  <variable name="X(8,16,87)" index="86198" value="1"/>
  <variable name="X(8,24,186)" index="87194" value="1"/>
  <variable name="X(8,42,384)" index="88289" value="1"/>
  <variable name="X(9,5,652)" index="89454" value="1"/>
  <variable name="X(9,19,846)" index="90545" value="1"/>
  <variable name="X(9,34,582)" index="91178" value="1"/>
  <variable name="X(10,19,240)" index="91733" value="1"/>
  <variable name="X(10,44,846)" index="93236" value="1"/>
  <variable name="X(11,1,292)" index="93579" value="1"/>
  <variable name="X(11,12,268)" index="94452" value="1"/>
  <variable name="X(11,15,159)" index="95240" value="1"/>
  <variable name="X(11,45,440)" index="96418" value="1"/>
  <variable name="X(12,11,292)" index="97167" value="1"/>
  <variable name="X(12,13,268)" index="98040" value="1"/>
  <variable name="X(12,46,471)" index="99140" value="1"/>
  <variable name="X(13,12,471)" index="100037" value="1"/>
  <variable name="X(13,24,301)" index="100764" value="1"/>
  <variable name="X(13,47,268)" index="101628" value="1"/>
  <variable name="X(14,25,376)" index="102633" value="1"/>
  <variable name="X(14,33,140)" index="103294" value="1"/>
  <variable name="X(14,48,723)" index="104774" value="1"/>
  <variable name="X(15,11,440)" index="105388" value="1"/>
  <variable name="X(15,20,159)" index="106004" value="1"/>
  <variable name="X(15,24,384)" index="107126" value="1"/>
  <variable name="X(15,49,186)" index="107825" value="1"/>
  <variable name="X(16,7,87)" index="108623" value="1"/>
  <variable name="X(16,8,582)" index="110015" value="1"/>
  <variable name="X(16,50,271)" index="110601" value="1"/>
  <variable name="X(17,18,477)" index="111704" value="1"/>
  <variable name="X(17,19,13)" index="112137" value="1"/>
  <variable name="X(17,24,471)" index="113492" value="1"/>
  <variable name="X(17,51,505)" index="114423" value="1"/>
  <variable name="X(18,17,505)" index="115320" value="1"/>
  <variable name="X(18,20,440)" index="116152" value="1"/>
  <variable name="X(18,24,453)" index="117062" value="1"/>
  <variable name="X(18,52,301)" index="117807" value="1"/>
  <variable name="X(19,6,240)" index="118643" value="1"/>
  <variable name="X(19,9,652)" index="119952" value="1"/>
  <variable name="X(19,10,846)" index="121043" value="1"/>
  <variable name="X(19,17,477)" index="121571" value="1"/>
  <variable name="X(19,53,13)" index="122004" value="1"/>
  <variable name="X(20,15,440)" index="123328" value="1"/>
  <variable name="X(20,18,505)" index="124290" value="1"/>
  <variable name="X(20,54,159)" index="124841" value="1"/>
  <variable name="X(21,1,540)" index="126119" value="1"/>
  <variable name="X(21,22,364)" index="126840" value="1"/>
  <variable name="X(21,55,160)" index="127533" value="1"/>
  <variable name="X(22,7,553)" index="128823" value="1"/>
  <variable name="X(22,21,160)" index="129327" value="1"/>
  <variable name="X(22,23,162)" index="130226" value="1"/>
  <variable name="X(22,56,364)" index="131325" value="1"/>
  <variable name="X(23,1,583)" index="132441" value="1"/>
  <variable name="X(23,57,540)" index="133295" value="1"/>
  <variable name="X(24,1,364)" index="134016" value="1"/>
  <variable name="X(24,8,384)" index="134933" value="1"/>
  <variable name="X(24,13,471)" index="135917" value="1"/>
  <variable name="X(24,15,186)" index="136529" value="1"/>
  <variable name="X(24,17,13)" index="137253" value="1"/>
  <variable name="X(24,18,301)" index="138438" value="1"/>
  <variable name="X(24,32,453)" index="139487" value="1"/>
  <variable name="X(24,58,583)" index="140514" value="1"/>
  <variable name="X(25,6,890)" index="141718" value="1"/>
  <variable name="X(25,14,140)" index="141865" value="1"/>
  <variable name="X(25,32,255)" index="142877" value="1"/>
  <variable name="X(25,34,376)" index="143895" value="1"/>
  <variable name="X(25,59,734)" index="145150" value="1"/>
  <variable name="X(26,6,652)" index="145965" value="1"/>
  <variable name="X(26,32,651)" index="146861" value="1"/>
  <variable name="X(26,60,453)" index="147560" value="1"/>
  <variable name="X(27,28,679)" index="148683" value="1"/>
  <variable name="X(27,30,547)" index="149448" value="1"/>
  <variable name="X(27,61,891)" index="150689" value="1"/>
  <variable name="X(28,4,679)" index="151374" value="1"/>
  <variable name="X(28,27,547)" index="152139" value="1"/>
  <variable name="X(28,29,705)" index="153194" value="1"/>
  <variable name="X(28,62,370)" index="153756" value="1"/>
  <variable name="X(29,28,370)" index="154653" value="1"/>
  <variable name="X(29,31,723)" index="155903" value="1"/>
  <variable name="X(29,63,705)" index="156782" value="1"/>
  <variable name="X(30,27,891)" index="157865" value="1"/>
  <variable name="X(30,31,708)" index="158579" value="1"/>
  <variable name="X(30,64,547)" index="159315" value="1"/>
  <variable name="X(31,29,370)" index="160035" value="1"/>
  <variable name="X(31,30,891)" index="161453" value="1"/>
  <variable name="X(31,32,708)" index="162167" value="1"/>
  <variable name="X(31,33,723)" index="163079" value="1"/>
  <variable name="X(31,65,255)" index="163508" value="1"/>
  <variable name="X(32,3,651)" index="164801" value="1"/>
  <variable name="X(32,24,364)" index="165411" value="1"/>
  <variable name="X(32,25,734)" index="166678" value="1"/>
  <variable name="X(32,26,453)" index="167294" value="1"/>
  <variable name="X(32,31,255)" index="167993" value="1"/>
  <variable name="X(32,66,708)" index="169343" value="1"/>
  <variable name="X(33,14,723)" index="170255" value="1"/>
  <variable name="X(33,31,891)" index="171320" value="1"/>
  <variable name="X(33,34,846)" index="172172" value="1"/>
  <variable name="X(33,67,140)" index="172363" value="1"/>
  <variable name="X(34,9,846)" index="173966" value="1"/>
  <variable name="X(34,25,890)" index="174907" value="1"/>
  <variable name="X(34,33,891)" index="175805" value="1"/>
  <variable name="X(34,68,376)" index="176187" value="1"/>
  <variable name="C(13,17)" index="176749" value="1"/>
  <variable name="C(13,19)" index="176750" value="2"/>
  <variable name="C(87,8)" index="177033" value="1"/>
  <variable name="C(87,16)" index="177034" value="2"/>
  <variable name="C(87,7)" index="177035" value="3"/>
  <variable name="C(140,25)" index="177271" value="1"/>
  <variable name="C(140,14)" index="177272" value="2"/>
  <variable name="C(140,33)" index="177273" value="3"/>
  <variable name="C(159,1)" index="177358" value="1"/>
  <variable name="C(159,11)" index="177359" value="2"/>
  <variable name="C(159,15)" index="177360" value="3"/>
  <variable name="C(159,20)" index="177361" value="4"/>
  <variable name="C(160,21)" index="177364" value="1"/>
  <variable name="C(162,22)" index="177368" value="1"/>
  <variable name="C(186,24)" index="177481" value="1"/>
  <variable name="C(186,15)" index="177482" value="2"/>
  <variable name="C(240,19)" index="177712" value="1"/>
  <variable name="C(240,6)" index="177713" value="2"/>
  <variable name="C(255,32)" index="177791" value="1"/>
  <variable name="C(255,31)" index="177792" value="2"/>
  <variable name="C(268,12)" index="177842" value="1"/>
  <variable name="C(268,13)" index="177843" value="2"/>
  <variable name="C(271,2)" index="177854" value="1"/>
  <variable name="C(271,7)" index="177855" value="2"/>
  <variable name="C(271,16)" index="177856" value="3"/>
  <variable name="C(292,11)" index="177945" value="1"/>
  <variable name="C(292,1)" index="177946" value="2"/>
  <variable name="C(292,4)" index="177947" value="3"/>
  <variable name="C(292,3)" index="177948" value="4"/>
  <variable name="C(301,24)" index="177983" value="1"/>
  <variable name="C(301,18)" index="177984" value="2"/>
  <variable name="C(364,24)" index="178272" value="1"/>
  <variable name="C(364,1)" index="178273" value="2"/>
  <variable name="C(364,21)" index="178274" value="3"/>
  <variable name="C(364,22)" index="178275" value="4"/>
  <variable name="C(370,29)" index="178300" value="1"/>
  <variable name="C(370,28)" index="178301" value="2"/>
  <variable name="C(376,25)" index="178319" value="1"/>
  <variable name="C(376,34)" index="178320" value="2"/>
  <variable name="C(384,24)" index="178351" value="1"/>
  <variable name="C(384,8)" index="178352" value="2"/>
  <variable name="C(440,20)" index="178563" value="1"/>
  <variable name="C(440,15)" index="178564" value="2"/>
  <variable name="C(440,11)" index="178565" value="3"/>
  <variable name="C(453,24)" index="178608" value="1"/>
  <variable name="C(453,32)" index="178609" value="2"/>
  <variable name="C(453,26)" index="178610" value="3"/>
  <variable name="C(471,24)" index="178687" value="1"/>
  <variable name="C(471,13)" index="178688" value="2"/>
  <variable name="C(471,12)" index="178689" value="3"/>
  <variable name="C(477,17)" index="178710" value="1"/>
  <variable name="C(505,18)" index="178836" value="1"/>
  <variable name="C(505,17)" index="178837" value="2"/>
  <variable name="C(540,1)" index="178990" value="1"/>
  <variable name="C(540,23)" index="178991" value="2"/>
  <variable name="C(547,28)" index="179022" value="1"/>
  <variable name="C(547,27)" index="179023" value="2"/>
  <variable name="C(547,30)" index="179024" value="3"/>
  <variable name="C(553,7)" index="179050" value="1"/>
  <variable name="C(553,2)" index="179051" value="2"/>
  <variable name="C(582,8)" index="179200" value="1"/>
  <variable name="C(582,5)" index="179201" value="2"/>
  <variable name="C(582,9)" index="179202" value="3"/>
  <variable name="C(583,23)" index="179204" value="2"/>
  <variable name="C(583,1)" index="179205" value="3"/>
  <variable name="C(583,24)" index="179206" value="4"/>
  <variable name="C(651,32)" index="179448" value="1"/>
  <variable name="C(651,3)" index="179449" value="2"/>
  <variable name="C(651,4)" index="179450" value="3"/>
  <variable name="C(652,6)" index="179452" value="1"/>
  <variable name="C(652,19)" index="179453" value="2"/>
  <variable name="C(652,9)" index="179454" value="3"/>
  <variable name="C(652,5)" index="179455" value="4"/>
  <variable name="C(679,28)" index="179564" value="1"/>
  <variable name="C(679,4)" index="179565" value="2"/>
  <variable name="C(679,1)" index="179566" value="3"/>
  <variable name="C(705,29)" index="179708" value="1"/>
  <variable name="C(708,31)" index="179716" value="1"/>
  <variable name="C(708,32)" index="179717" value="2"/>
  <variable name="C(723,31)" index="179784" value="1"/>
  <variable name="C(723,33)" index="179785" value="2"/>
  <variable name="C(723,14)" index="179786" value="3"/>
  <variable name="C(734,32)" index="179840" value="1"/>
  <variable name="C(734,25)" index="179841" value="2"/>
  <variable name="C(846,34)" index="180294" value="1"/>
  <variable name="C(846,9)" index="180295" value="2"/>
  <variable name="C(846,19)" index="180296" value="3"/>
  <variable name="C(846,10)" index="180297" value="4"/>
  <variable name="C(890,25)" index="180496" value="1"/>
  <variable name="C(890,6)" index="180497" value="2"/>
  <variable name="C(891,33)" index="180500" value="1"/>
  <variable name="C(891,31)" index="180501" value="2"/>
  <variable name="C(891,30)" index="180502" value="3"/>
  <variable name="C(891,27)" index="180503" value="4"/>
 </variables>
</CPLEXSolution>
